c Output_time 26.03.2020 18:15:10_+0100 1585242910904376319
c ** Program information **
c program_name                          "QBRG_debug"
c version                               "0.3.20"
c date                                  "25.3.2020"
c gid_id                                "673970833836058123f633335630c185360d632e"
c author                                "Oliver Kullmann"
c url                                   "https://github.com/OKullmann/oklibrary/blob/master/Satisfiability/Transformers/Generators/Random/QBRG.cpp"
c ** Machine information **
c machine_name                          "chyna-Lenovo-G50-70"
c bogomips                              3791.08
c ** Compilation information **
c compiler_version                      "g++ 7.5.0"
c compilation_date                      "Mar_26_2020 11:16:30"
c compilation_options                   "--std=c++17 -pedantic -fmax-errors=5 -Wall -Wextra -g -D_GLIBCXX_DEBUG"
c NDEBUG                                0
c OPTIMIZE                              0
c ** Parameters **
c command-line                          "./QBRG_debug" "a40 e40 a40 40" "181*1,1|2-2,1|3-3,1|4-4,1" "" "1,t" ""
c output                                "QuBlRaGe_160_181_1585242910904210547.qdimacs"
c options                               "filtered,renamed"
c num_quantifier_blocks                 4
c  quantifier_blocks                    1:a1-40 2:e41-80 3:a81-120 4:e121-160
c num_clause-blocks                     1
c  clause-blocks                        181 * {1-40,1,1/2} | {41-80,1,1/2} | {81-120,1,1/2} | {121-160,1,1/2}
c num_e-seeds                           37+2=39
c  e-seeds                              1 0 1 0 5 160 2 40 0 40 1 40 0 40 1 181 4 1 1 1 1 2 2 2 1 1 2 3 3 1 1 2 4 4 1 1 2 1 1585242910904209994
p cnf 156 181
a 1 2 3 4 5 6 7 8 9 10 11 12 13 14 15 16 17 18 19 20 21 22 23 24 25 26 27 28 29 30 31 32 33 34 35 36 37 38 39 0
e 40 41 42 43 44 45 46 47 48 49 50 51 52 53 54 55 56 57 58 59 60 61 62 63 64 65 66 67 68 69 70 71 72 73 74 75 76 77 78 79 0
a 80 81 82 83 84 85 86 87 88 89 90 91 92 93 94 95 96 97 98 99 100 101 102 103 104 105 106 107 108 109 110 111 112 113 114 115 116 117 0
e 118 119 120 121 122 123 124 125 126 127 128 129 130 131 132 133 134 135 136 137 138 139 140 141 142 143 144 145 146 147 148 149 150 151 152 153 154 155 156 0
6 51 -83 -118 0
31 54 -95 -118 0
-2 65 -95 118 0
14 77 94 -119 0
-33 -47 82 119 0
-8 65 -99 119 0
37 47 84 -120 0
11 45 -82 120 0
20 -65 86 120 0
-26 -51 -92 120 0
-39 -46 99 120 0
-1 43 86 -121 0
-20 -76 95 -121 0
29 -67 116 -121 0
-9 -43 -100 121 0
4 -56 91 122 0
-25 -71 91 122 0
-2 -45 117 122 0
8 75 84 -123 0
-9 -59 86 -123 0
-22 -76 -97 -123 0
-36 58 -102 -123 0
-30 40 82 123 0
26 78 88 123 0
28 71 94 123 0
8 55 -81 -124 0
7 -76 103 -124 0
9 -55 110 -124 0
-13 -52 100 124 0
-2 -65 -103 124 0
10 -76 108 124 0
9 49 114 124 0
27 -63 -109 125 0
18 -71 81 -126 0
-24 76 83 -126 0
-1 46 -96 -126 0
8 -75 -85 126 0
-34 -58 85 126 0
17 -48 101 126 0
-1 55 83 -127 0
6 -60 81 127 0
18 74 89 127 0
-10 79 100 127 0
17 50 105 127 0
18 -49 -84 -128 0
-25 -71 -87 -128 0
29 -55 95 128 0
33 -51 -96 128 0
28 -58 -81 -129 0
-1 -76 81 -129 0
-8 -61 82 -129 0
-37 43 -87 -129 0
35 -59 -92 -129 0
-32 73 92 -129 0
17 77 101 -129 0
11 42 -105 -129 0
19 -52 116 -129 0
15 -73 96 129 0
-14 71 -108 129 0
-21 -47 -85 -130 0
-32 41 93 -130 0
-34 58 -95 -130 0
1 -72 103 -130 0
29 48 117 -130 0
-17 67 -82 130 0
-28 -77 105 130 0
-15 78 82 -131 0
28 65 -105 -131 0
-1 49 -91 131 0
28 71 -102 131 0
35 64 98 -132 0
-5 -68 101 -132 0
19 -45 -109 -132 0
23 -79 111 -133 0
28 -71 106 134 0
19 56 110 134 0
-11 76 80 -135 0
33 -58 92 -135 0
16 -59 111 135 0
-11 58 115 135 0
-29 -74 108 -136 0
-6 74 108 -136 0
-15 48 81 136 0
23 -62 92 136 0
-38 -48 -99 136 0
34 -47 111 136 0
12 42 97 -137 0
33 -59 -98 -137 0
-29 -45 -103 -137 0
17 -76 111 -137 0
-8 64 85 137 0
-10 62 -93 137 0
26 43 -103 137 0
-20 -41 -110 137 0
29 66 -111 137 0
15 73 97 -138 0
22 -61 -104 -138 0
-33 -51 -105 -138 0
15 68 83 138 0
25 44 92 138 0
32 -43 -106 138 0
9 -60 113 138 0
-16 50 -117 138 0
-33 -73 94 -139 0
-36 -57 110 -139 0
-33 -67 90 139 0
17 -66 100 139 0
37 71 -102 139 0
28 64 -111 139 0
-7 45 113 139 0
34 -75 83 140 0
-1 48 96 140 0
28 59 95 -141 0
-3 -76 86 -142 0
39 -57 105 142 0
-29 61 -107 142 0
35 -60 -100 -143 0
-38 -53 107 -143 0
5 62 -112 -143 0
21 74 87 143 0
17 -68 92 143 0
-10 50 97 143 0
35 53 107 143 0
20 -61 110 143 0
-31 77 -100 -144 0
-1 79 -88 144 0
-14 57 96 144 0
18 -79 -107 144 0
-38 -77 -117 144 0
-37 63 -95 -145 0
-36 -70 85 145 0
1 55 91 145 0
9 -60 -98 145 0
37 71 103 145 0
5 49 -111 145 0
23 78 -111 145 0
-21 -77 -112 145 0
-31 -55 -113 145 0
-36 64 -94 -146 0
-37 -73 99 -146 0
3 -65 -106 -146 0
29 -43 -94 147 0
-6 66 -111 147 0
-9 65 81 -148 0
-11 74 -84 -148 0
31 49 -97 -148 0
8 -76 -98 148 0
-35 43 -97 -149 0
-7 -73 99 -149 0
-2 60 -111 -149 0
19 46 -84 149 0
-36 -60 95 149 0
13 -45 -110 149 0
-15 -79 -102 150 0
-32 -63 105 150 0
-2 79 -87 -151 0
-6 62 -106 -151 0
6 -41 93 -152 0
-8 46 94 -152 0
16 41 -86 152 0
-15 65 96 152 0
2 65 -81 -153 0
16 44 81 -153 0
23 -54 -86 153 0
-3 46 91 153 0
30 -77 97 153 0
6 53 111 153 0
-19 54 -87 -154 0
11 42 98 -154 0
4 -67 -86 154 0
-23 -55 89 154 0
18 -79 114 154 0
23 74 86 -155 0
-30 64 -80 155 0
-11 -76 101 155 0
-24 -69 -103 155 0
5 -74 103 155 0
39 71 115 155 0
10 79 -101 -156 0
17 -76 103 -156 0
15 58 90 156 0
